22
13
0 13 14 15 17 18 19 20 21
1 13 17 19 20 21
2 14 15 16 17 18 19 20 21
3 13 16 17 18 20
4 16 17 18 20 21
5 15 17 18 19
6 13 14 19 20
7 16 18 20
8 13 14 19 20 21
9 16 20 21
10 15 17 19
11 14 18 21
12 17
